17	4
16	23	17	21	
0	0	0	0	0	3	2	3	4	
7	2	0	2	1	3	9	16	17	
10	0	7	0	7	3	5	6	8	
1	8	1	0	10	3	7	12	16	
1	6	2	4	10	3	11	17	17	
175	4	3	6	1	3	10	13	17	
75	10	6	0	9	3	10	11	14	
50	4	8	3	1	2	11	17	
200	5	8	6	0	2	14	17	
100	5	6	2	0	3	15	17	17	
25	0	8	9	0	3	17	17	17	
100	3	5	1	4	3	15	17	17	
8	0	3	1	8	3	14	16	17	
2	0	6	2	4	3	15	17	17	
4	2	1	9	4	1	17	
10	9	7	6	10	2	17	17	
0	0	0	0	0	0	
